0000000000000000
0000000000000000
0000000000000000
0000000000000000
0000010011000000
0000111111100000
0001111111100000
0000000011000000
0000000011000000
0000000011000000
0000000011000000
0000000010000000
0000000011000000
0000000010000000
0000000000000000
0000000000000000
